c A SAT instance generated from a 3-CNF formula that had 39 clauses and 13 variables
p cnf 13 39
4 2 1 0
3 -4 9 0
11 -4 7 0
2 7 -8 0
-2 -5 11 0
2 -5 7 0
-8 1 -3 0
7 -2 -4 0
-2 11 -7 0
12 7 -5 0
8 -13 -4 0
3 -9 -4 0
12 1 11 0
-4 11 7 0
9 -13 2 0
-4 3 -1 0
-13 6 3 0
1 13 -7 0
-9 4 7 0
-4 -13 -7 0
6 -1 -4 0
-9 3 -13 0
-6 -11 -4 0
6 -9 11 0
-9 -11 12 0
-10 -11 3 0
10 -9 8 0
-5 4 -7 0
6 3 5 0
11 10 -5 0
-12 -7 -11 0
-13 -9 2 0
13 -12 -3 0
-3 7 -9 0
-4 -1 6 0
-4 1 -6 0
-12 2 -11 0
4 -1 -2 0
13 -1 -11 0
